LAMMPS (29 Oct 2020)
OMP_NUM_THREADS environment is not set. Defaulting to 1 thread. (src/comm.cpp:94)
  using 1 OpenMP thread(s) per MPI task
units real
atom_style full

dimension 3
boundary p p p

bond_style hybrid harmonic
angle_style hybrid harmonic
dihedral_style hybrid multi/harmonic
special_bonds lj 0.0 0.0 0.5 coul 0.0 0.0 0.5

read_data ../01-CREATE/C150_1fold_initial_new_replicate.lmp
Reading data file ...
  triclinic box = (-2.2000000 -1.9800000 1.2200000) to (25.288000 23.149000 95.624000) with tilt (0.0000000 0.0000000 0.0000000)
  1 by 1 by 1 MPI processor grid
  reading atoms ...
  452 atoms
  reading velocities ...
  452 velocities
  scanning bonds ...
  1 = max bonds/atom
  scanning angles ...
  6 = max angles/atom
  scanning dihedrals ...
  9 = max dihedrals/atom
  reading bonds ...
  451 bonds
  reading angles ...
  900 angles
  reading dihedrals ...
  1341 dihedrals
Finding 1-2 1-3 1-4 neighbors ...
  special bond factors lj:    0.0      0.0      0.5     
  special bond factors coul:  0.0      0.0      0.5     
     4 = max # of 1-2 neighbors
     6 = max # of 1-3 neighbors
    12 = max # of 1-4 neighbors
    16 = max # of special neighbors
  special bonds CPU = 0.000 seconds
  read_data CPU = 0.017 seconds

pair_style lj/cut/coul/long 9.0 9.0
kspace_style pppm 1e-6
pair_coeff 1 1   0.0660000   3.5000000
pair_coeff 2 2   0.0300000   2.5000000
pair_coeff 3 3   0.0660000   3.5000000
pair_coeff 3 3   0.0330000   3.5000000
pair_coeff 2 3   0.0222486   2.9580399
pair_coeff 2 3   0.0222486   2.9580399
pair_coeff 2 2   0.0150000   2.5000000
pair_coeff 2 3   0.0222486   2.9580399
pair_coeff 2 2   0.0150000   2.5000000
pair_coeff 2 3   0.0222486   2.9580399
pair_coeff 3 3   0.0330000   3.5000000
pair_coeff 2 2   0.0150000   2.5000000
pair_coeff 2 3   0.0222486   2.9580399
pair_coeff 2 2   0.0150000   2.5000000
pair_coeff 2 3   0.0222486   2.9580399
pair_coeff 2 3   0.0222486   2.9580399
pair_coeff 2 3   0.0222486   2.9580399
pair_coeff 2 2   0.0150000   2.5000000
pair_coeff 2 2   0.0150000   2.5000000
pair_coeff 2 2   0.0150000   2.5000000
pair_coeff 2 2   0.0150000   2.5000000
pair_coeff 3 3   0.0330000   3.5000000
pair_coeff 2 3   0.0222486   2.9580399
pair_coeff 2 3   0.0222486   2.9580399
pair_coeff 2 2   0.0150000   2.5000000
pair_coeff 2 3   0.0222486   2.9580399
pair_coeff 2 2   0.0150000   2.5000000
pair_coeff 2 3   0.0222486   2.9580399
pair_coeff 3 3   0.0330000   3.5000000
pair_coeff 2 2   0.0150000   2.5000000
pair_coeff 2 3   0.0222486   2.9580399
pair_coeff 2 2   0.0150000   2.5000000
pair_coeff 2 3   0.0222486   2.9580399
pair_coeff 2 3   0.0222486   2.9580399
pair_coeff 2 3   0.0222486   2.9580399
pair_coeff 2 2   0.0150000   2.5000000
pair_coeff 2 2   0.0150000   2.5000000
pair_coeff 2 2   0.0150000   2.5000000
pair_coeff 2 2   0.0150000   2.5000000
pair_coeff 3 3   0.0330000   3.5000000
pair_coeff 2 3   0.0222486   2.9580399
pair_coeff 2 3   0.0222486   2.9580399
pair_coeff 2 2   0.0150000   2.5000000
pair_coeff 2 3   0.0222486   2.9580399
pair_coeff 2 2   0.0150000   2.5000000
pair_coeff 2 3   0.0222486   2.9580399
pair_coeff 3 3   0.0330000   3.5000000
pair_coeff 2 2   0.0150000   2.5000000
pair_coeff 2 3   0.0222486   2.9580399
pair_coeff 2 2   0.0150000   2.5000000
pair_coeff 2 3   0.0222486   2.9580399
pair_coeff 2 3   0.0222486   2.9580399
pair_coeff 2 3   0.0222486   2.9580399
pair_coeff 2 2   0.0150000   2.5000000
pair_coeff 2 2   0.0150000   2.5000000
pair_coeff 2 2   0.0150000   2.5000000
pair_coeff 2 2   0.0150000   2.5000000
pair_coeff 3 3   0.0330000   3.5000000
pair_coeff 2 3   0.0222486   2.9580399
pair_coeff 2 3   0.0222486   2.9580399
pair_coeff 2 2   0.0150000   2.5000000
pair_coeff 2 3   0.0222486   2.9580399
pair_coeff 2 2   0.0150000   2.5000000
pair_coeff 2 3   0.0222486   2.9580399
pair_coeff 3 3   0.0330000   3.5000000
pair_coeff 2 3   0.0222486   2.9580399
pair_coeff 2 3   0.0222486   2.9580399
pair_coeff 2 2   0.0150000   2.5000000
pair_coeff 2 2   0.0150000   2.5000000
pair_coeff 2 3   0.0222486   2.9580399
pair_coeff 2 2   0.0150000   2.5000000
pair_coeff 2 2   0.0150000   2.5000000
pair_coeff 3 3   0.0330000   3.5000000
pair_coeff 2 3   0.0222486   2.9580399
pair_coeff 2 3   0.0222486   2.9580399
pair_coeff 2 3   0.0222486   2.9580399
pair_coeff 2 2   0.0150000   2.5000000
pair_coeff 2 2   0.0150000   2.5000000
pair_coeff 2 3   0.0222486   2.9580399
pair_coeff 2 2   0.0150000   2.5000000
pair_coeff 2 2   0.0150000   2.5000000
pair_coeff 3 3   0.0330000   3.5000000
pair_coeff 2 3   0.0222486   2.9580399
pair_coeff 2 3   0.0222486   2.9580399
pair_coeff 2 3   0.0222486   2.9580399
pair_coeff 2 2   0.0150000   2.5000000
pair_coeff 2 2   0.0150000   2.5000000
pair_coeff 2 3   0.0222486   2.9580399
pair_coeff 2 2   0.0150000   2.5000000
pair_coeff 2 2   0.0150000   2.5000000
pair_coeff 3 3   0.0330000   3.5000000
pair_coeff 2 3   0.0222486   2.9580399
pair_coeff 2 3   0.0222486   2.9580399
pair_coeff 2 3   0.0222486   2.9580399
pair_coeff 2 2   0.0150000   2.5000000
pair_coeff 2 2   0.0150000   2.5000000
pair_coeff 2 3   0.0222486   2.9580399
pair_coeff 2 2   0.0150000   2.5000000
pair_coeff 2 2   0.0150000   2.5000000
pair_coeff 2 3   0.0222486   2.9580399
pair_coeff 2 2   0.0150000   2.5000000
pair_coeff 2 2   0.0150000   2.5000000
pair_coeff 3 3   0.0330000   3.5000000
pair_coeff 2 3   0.0222486   2.9580399
pair_coeff 2 3   0.0222486   2.9580399
pair_coeff 2 3   0.0222486   2.9580399
pair_coeff 2 2   0.0150000   2.5000000
pair_coeff 2 2   0.0150000   2.5000000
pair_coeff 2 3   0.0222486   2.9580399
pair_coeff 2 2   0.0150000   2.5000000
pair_coeff 2 2   0.0150000   2.5000000
pair_coeff 3 3   0.0330000   3.5000000
pair_coeff 2 3   0.0222486   2.9580399
pair_coeff 2 3   0.0222486   2.9580399
pair_coeff 2 3   0.0222486   2.9580399
pair_coeff 2 2   0.0150000   2.5000000
pair_coeff 2 2   0.0150000   2.5000000
pair_coeff 2 3   0.0222486   2.9580399
pair_coeff 2 2   0.0150000   2.5000000
pair_coeff 2 2   0.0150000   2.5000000
pair_coeff 3 3   0.0330000   3.5000000
pair_coeff 2 3   0.0222486   2.9580399
pair_coeff 2 3   0.0222486   2.9580399
pair_coeff 2 3   0.0222486   2.9580399
pair_coeff 2 2   0.0150000   2.5000000
pair_coeff 2 2   0.0150000   2.5000000
pair_coeff 2 3   0.0222486   2.9580399
pair_coeff 2 2   0.0150000   2.5000000
pair_coeff 2 2   0.0150000   2.5000000
pair_coeff 2 3   0.0222486   2.9580399
pair_coeff 2 2   0.0150000   2.5000000
pair_coeff 2 3   0.0222486   2.9580399
pair_coeff 2 2   0.0150000   2.5000000
pair_coeff 2 3   0.0222486   2.9580399
pair_coeff 2 2   0.0150000   2.5000000
pair_coeff 2 2   0.0150000   2.5000000
pair_coeff 2 3   0.0222486   2.9580399
pair_coeff 2 3   0.0222486   2.9580399
pair_coeff 3 3   0.0330000   3.5000000
pair_coeff 2 2   0.0150000   2.5000000
pair_coeff 2 2   0.0150000   2.5000000
pair_coeff 2 2   0.0150000   2.5000000
pair_coeff 2 3   0.0222486   2.9580399
pair_coeff 3 3   0.0330000   3.5000000
pair_coeff 2 2   0.0150000   2.5000000
pair_coeff 2 2   0.0150000   2.5000000
pair_coeff 2 3   0.0222486   2.9580399
pair_coeff 2 3   0.0222486   2.9580399
pair_coeff 3 3   0.0330000   3.5000000
pair_coeff 2 3   0.0222486   2.9580399
pair_coeff 2 3   0.0222486   2.9580399
pair_coeff 2 3   0.0222486   2.9580399
pair_coeff 2 3   0.0222486   2.9580399
pair_coeff 2 2   0.0150000   2.5000000
pair_coeff 2 2   0.0150000   2.5000000
pair_coeff 2 3   0.0222486   2.9580399
pair_coeff 2 3   0.0222486   2.9580399
pair_coeff 2 2   0.0150000   2.5000000
pair_coeff 2 2   0.0150000   2.5000000
pair_coeff 2 2   0.0150000   2.5000000
pair_coeff 2 3   0.0222486   2.9580399
pair_coeff 3 3   0.0330000   3.5000000
pair_coeff 2 3   0.0222486   2.9580399
pair_coeff 2 2   0.0150000   2.5000000
pair_coeff 2 2   0.0150000   2.5000000
pair_coeff 2 3   0.0222486   2.9580399
pair_coeff 2 2   0.0150000   2.5000000
pair_coeff 2 3   0.0222486   2.9580399
pair_coeff 2 2   0.0150000   2.5000000
pair_coeff 2 3   0.0222486   2.9580399
pair_coeff 2 2   0.0150000   2.5000000
pair_coeff 2 2   0.0150000   2.5000000
pair_coeff 2 3   0.0222486   2.9580399
pair_coeff 2 3   0.0222486   2.9580399
pair_coeff 3 3   0.0330000   3.5000000
pair_coeff 2 2   0.0150000   2.5000000
pair_coeff 2 2   0.0150000   2.5000000
pair_coeff 2 2   0.0150000   2.5000000
pair_coeff 2 3   0.0222486   2.9580399
pair_coeff 3 3   0.0330000   3.5000000
pair_coeff 2 2   0.0150000   2.5000000
pair_coeff 2 2   0.0150000   2.5000000
pair_coeff 2 3   0.0222486   2.9580399
pair_coeff 2 3   0.0222486   2.9580399
pair_coeff 3 3   0.0330000   3.5000000
pair_coeff 2 3   0.0222486   2.9580399
pair_coeff 2 3   0.0222486   2.9580399
pair_coeff 2 3   0.0222486   2.9580399
pair_coeff 2 3   0.0222486   2.9580399
pair_coeff 2 2   0.0150000   2.5000000
pair_coeff 2 2   0.0150000   2.5000000
pair_coeff 2 3   0.0222486   2.9580399
pair_coeff 2 3   0.0222486   2.9580399
pair_coeff 2 2   0.0150000   2.5000000
pair_coeff 2 2   0.0150000   2.5000000
pair_coeff 2 2   0.0150000   2.5000000
pair_coeff 2 3   0.0222486   2.9580399
pair_coeff 3 3   0.0330000   3.5000000
pair_coeff 2 3   0.0222486   2.9580399
pair_coeff 2 2   0.0150000   2.5000000
pair_coeff 2 2   0.0150000   2.5000000
pair_coeff 2 3   0.0222486   2.9580399
pair_coeff 2 2   0.0150000   2.5000000
pair_coeff 2 3   0.0222486   2.9580399
pair_coeff 2 2   0.0150000   2.5000000
pair_coeff 2 3   0.0222486   2.9580399
pair_coeff 2 2   0.0150000   2.5000000
pair_coeff 2 2   0.0150000   2.5000000
pair_coeff 2 3   0.0222486   2.9580399
pair_coeff 2 3   0.0222486   2.9580399
pair_coeff 3 3   0.0330000   3.5000000
pair_coeff 2 2   0.0150000   2.5000000
pair_coeff 2 2   0.0150000   2.5000000
pair_coeff 2 2   0.0150000   2.5000000
pair_coeff 2 3   0.0222486   2.9580399
pair_coeff 3 3   0.0330000   3.5000000
pair_coeff 2 2   0.0150000   2.5000000
pair_coeff 2 2   0.0150000   2.5000000
pair_coeff 2 3   0.0222486   2.9580399
pair_coeff 2 3   0.0222486   2.9580399
pair_coeff 3 3   0.0330000   3.5000000
pair_coeff 2 3   0.0222486   2.9580399
pair_coeff 2 3   0.0222486   2.9580399
pair_coeff 2 3   0.0222486   2.9580399
pair_coeff 2 3   0.0222486   2.9580399
pair_coeff 2 2   0.0150000   2.5000000
pair_coeff 2 2   0.0150000   2.5000000
pair_coeff 2 3   0.0222486   2.9580399
pair_coeff 2 3   0.0222486   2.9580399
pair_coeff 2 2   0.0150000   2.5000000
pair_coeff 2 2   0.0150000   2.5000000
pair_coeff 2 2   0.0150000   2.5000000
pair_coeff 2 3   0.0222486   2.9580399
pair_coeff 3 3   0.0330000   3.5000000
pair_coeff 2 3   0.0222486   2.9580399
pair_coeff 2 2   0.0150000   2.5000000
pair_coeff 2 2   0.0150000   2.5000000
pair_coeff 2 3   0.0222486   2.9580399
pair_coeff 2 2   0.0150000   2.5000000
pair_coeff 2 3   0.0222486   2.9580399
pair_coeff 2 2   0.0150000   2.5000000
pair_coeff 2 3   0.0222486   2.9580399
pair_coeff 2 2   0.0150000   2.5000000
pair_coeff 2 2   0.0150000   2.5000000
pair_coeff 2 3   0.0222486   2.9580399
pair_coeff 2 3   0.0222486   2.9580399
pair_coeff 3 3   0.0330000   3.5000000
pair_coeff 2 2   0.0150000   2.5000000
pair_coeff 2 2   0.0150000   2.5000000
pair_coeff 2 2   0.0150000   2.5000000
pair_coeff 2 3   0.0222486   2.9580399
pair_coeff 2 3   0.0222486   2.9580399
pair_coeff 2 2   0.0150000   2.5000000
pair_coeff 2 2   0.0150000   2.5000000
pair_coeff 3 3   0.0330000   3.5000000
pair_coeff 2 3   0.0222486   2.9580399
pair_coeff 2 3   0.0222486   2.9580399
pair_coeff 2 3   0.0222486   2.9580399
pair_coeff 2 2   0.0150000   2.5000000
pair_coeff 2 2   0.0150000   2.5000000
pair_coeff 2 3   0.0222486   2.9580399
pair_coeff 2 2   0.0150000   2.5000000
pair_coeff 2 2   0.0150000   2.5000000
pair_coeff 3 3   0.0330000   3.5000000
pair_coeff 2 3   0.0222486   2.9580399
pair_coeff 2 3   0.0222486   2.9580399
pair_coeff 2 3   0.0222486   2.9580399
pair_coeff 2 2   0.0150000   2.5000000
pair_coeff 2 2   0.0150000   2.5000000
pair_coeff 2 3   0.0222486   2.9580399
pair_coeff 2 2   0.0150000   2.5000000
pair_coeff 2 2   0.0150000   2.5000000
pair_coeff 3 3   0.0330000   3.5000000
pair_coeff 2 3   0.0222486   2.9580399
pair_coeff 2 3   0.0222486   2.9580399
pair_coeff 2 3   0.0222486   2.9580399
pair_coeff 2 2   0.0150000   2.5000000
pair_coeff 2 2   0.0150000   2.5000000
pair_coeff 2 3   0.0222486   2.9580399
pair_coeff 2 2   0.0150000   2.5000000
pair_coeff 2 2   0.0150000   2.5000000
pair_coeff 3 3   0.0330000   3.5000000
pair_coeff 2 2   0.0150000   2.5000000
pair_coeff 2 2   0.0150000   2.5000000
pair_coeff 3 3   0.0330000   3.5000000
pair_coeff 2 3   0.0222486   2.9580399
pair_coeff 2 3   0.0222486   2.9580399
pair_coeff 2 3   0.0222486   2.9580399
pair_coeff 2 2   0.0150000   2.5000000
pair_coeff 2 2   0.0150000   2.5000000
pair_coeff 2 3   0.0222486   2.9580399
pair_coeff 2 2   0.0150000   2.5000000
pair_coeff 2 2   0.0150000   2.5000000
pair_coeff 3 3   0.0330000   3.5000000
pair_coeff 2 3   0.0222486   2.9580399
pair_coeff 2 3   0.0222486   2.9580399
pair_coeff 2 3   0.0222486   2.9580399
pair_coeff 2 2   0.0150000   2.5000000
pair_coeff 2 2   0.0150000   2.5000000
pair_coeff 2 3   0.0222486   2.9580399
pair_coeff 2 2   0.0150000   2.5000000
pair_coeff 2 2   0.0150000   2.5000000
pair_coeff 3 3   0.0330000   3.5000000
pair_coeff 2 3   0.0222486   2.9580399
pair_coeff 2 3   0.0222486   2.9580399
pair_coeff 2 3   0.0222486   2.9580399
pair_coeff 2 2   0.0150000   2.5000000
pair_coeff 2 2   0.0150000   2.5000000
pair_coeff 2 3   0.0222486   2.9580399
pair_coeff 2 2   0.0150000   2.5000000
pair_coeff 2 2   0.0150000   2.5000000
pair_coeff 3 3   0.0330000   3.5000000
pair_coeff 2 3   0.0222486   2.9580399
pair_coeff 3 3   0.0330000   3.5000000
pair_coeff 2 3   0.0222486   2.9580399
pair_coeff 2 3   0.0222486   2.9580399
pair_coeff 2 3   0.0222486   2.9580399
pair_coeff 2 2   0.0150000   2.5000000
pair_coeff 2 2   0.0150000   2.5000000
pair_coeff 2 3   0.0222486   2.9580399
pair_coeff 2 2   0.0150000   2.5000000
pair_coeff 2 2   0.0150000   2.5000000
pair_coeff 3 3   0.0330000   3.5000000
pair_coeff 2 3   0.0222486   2.9580399
pair_coeff 2 2   0.0150000   2.5000000
pair_coeff 2 3   0.0222486   2.9580399
pair_coeff 2 2   0.0150000   2.5000000
pair_coeff 2 3   0.0222486   2.9580399
pair_coeff 2 2   0.0150000   2.5000000
pair_coeff 2 2   0.0150000   2.5000000
pair_coeff 2 2   0.0150000   2.5000000
pair_coeff 2 3   0.0222486   2.9580399
pair_coeff 2 2   0.0150000   2.5000000
pair_coeff 2 2   0.0150000   2.5000000
pair_coeff 2 2   0.0150000   2.5000000
pair_coeff 2 2   0.0150000   2.5000000
pair_coeff 2 2   0.0150000   2.5000000
pair_coeff 3 3   0.0330000   3.5000000
pair_coeff 2 3   0.0222486   2.9580399
pair_coeff 2 3   0.0222486   2.9580399
pair_coeff 2 3   0.0222486   2.9580399
pair_coeff 2 3   0.0222486   2.9580399
pair_coeff 2 3   0.0222486   2.9580399
pair_coeff 2 3   0.0222486   2.9580399
pair_coeff 1 2   0.0222486   2.9580399
pair_coeff 2 2   0.0150000   2.5000000
pair_coeff 2 2   0.0150000   2.5000000
pair_coeff 2 2   0.0150000   2.5000000
pair_coeff 2 2   0.0150000   2.5000000
pair_coeff 2 3   0.0222486   2.9580399
pair_coeff 1 2   0.0222486   2.9580399
pair_coeff 2 2   0.0150000   2.5000000
pair_coeff 2 2   0.0150000   2.5000000
pair_coeff 2 2   0.0150000   2.5000000
pair_coeff 2 2   0.0150000   2.5000000
pair_coeff 3 3   0.0330000   3.5000000
pair_coeff 1 3   0.0330000   3.5000000
pair_coeff 2 3   0.0222486   2.9580399
pair_coeff 2 3   0.0222486   2.9580399
pair_coeff 2 3   0.0222486   2.9580399
pair_coeff 2 3   0.0222486   2.9580399
pair_coeff 2 3   0.0222486   2.9580399
pair_coeff 2 2   0.0150000   2.5000000
pair_coeff 2 3   0.0222486   2.9580399
pair_coeff 2 3   0.0222486   2.9580399
pair_coeff 2 3   0.0222486   2.9580399
pair_coeff 2 2   0.0150000   2.5000000
pair_coeff 2 2   0.0150000   2.5000000
pair_coeff 2 2   0.0150000   2.5000000
pair_coeff 2 2   0.0150000   2.5000000
pair_coeff 3 3   0.0330000   3.5000000
pair_coeff 2 3   0.0222486   2.9580399
pair_coeff 2 3   0.0222486   2.9580399
pair_coeff 2 2   0.0150000   2.5000000
pair_coeff 2 3   0.0222486   2.9580399
pair_coeff 2 2   0.0150000   2.5000000
pair_coeff 2 3   0.0222486   2.9580399
pair_coeff 3 3   0.0330000   3.5000000
pair_coeff 2 2   0.0150000   2.5000000
pair_coeff 2 3   0.0222486   2.9580399
pair_coeff 2 2   0.0150000   2.5000000
pair_coeff 2 3   0.0222486   2.9580399
pair_coeff 2 3   0.0222486   2.9580399
pair_coeff 2 3   0.0222486   2.9580399
pair_coeff 2 2   0.0150000   2.5000000
pair_coeff 2 2   0.0150000   2.5000000
pair_coeff 2 2   0.0150000   2.5000000
pair_coeff 2 2   0.0150000   2.5000000
pair_coeff 3 3   0.0330000   3.5000000
pair_coeff 2 3   0.0222486   2.9580399
pair_coeff 2 3   0.0222486   2.9580399
pair_coeff 2 2   0.0150000   2.5000000
pair_coeff 2 3   0.0222486   2.9580399
pair_coeff 2 2   0.0150000   2.5000000
pair_coeff 2 3   0.0222486   2.9580399
pair_coeff 3 3   0.0330000   3.5000000
pair_coeff 2 2   0.0150000   2.5000000
pair_coeff 2 3   0.0222486   2.9580399
pair_coeff 2 2   0.0150000   2.5000000
pair_coeff 2 3   0.0222486   2.9580399
pair_coeff 2 3   0.0222486   2.9580399
pair_coeff 2 3   0.0222486   2.9580399
pair_coeff 2 2   0.0150000   2.5000000
pair_coeff 2 2   0.0150000   2.5000000
pair_coeff 2 2   0.0150000   2.5000000
pair_coeff 2 2   0.0150000   2.5000000
pair_coeff 3 3   0.0330000   3.5000000
pair_coeff 2 3   0.0222486   2.9580399
pair_coeff 2 3   0.0222486   2.9580399
pair_coeff 2 2   0.0150000   2.5000000
pair_coeff 2 3   0.0222486   2.9580399
pair_coeff 2 2   0.0150000   2.5000000
pair_coeff 2 3   0.0222486   2.9580399
pair_coeff 3 3   0.0330000   3.5000000
pair_coeff 2 2   0.0150000   2.5000000
pair_coeff 2 3   0.0222486   2.9580399
pair_coeff 2 2   0.0150000   2.5000000
pair_coeff 2 3   0.0222486   2.9580399
pair_coeff 2 3   0.0222486   2.9580399
pair_coeff 2 3   0.0222486   2.9580399
pair_coeff 2 2   0.0150000   2.5000000
pair_coeff 2 2   0.0150000   2.5000000
pair_coeff 2 2   0.0150000   2.5000000
pair_coeff 2 2   0.0150000   2.5000000
pair_coeff 2 3   0.0222486   2.9580399
pair_coeff 2 2   0.0150000   2.5000000
pair_coeff 2 3   0.0222486   2.9580399
pair_coeff 3 3   0.0330000   3.5000000
pair_coeff 2 3   0.0222486   2.9580399
pair_coeff 2 3   0.0222486   2.9580399
pair_coeff 2 2   0.0150000   2.5000000
pair_coeff 2 3   0.0222486   2.9580399
pair_coeff 2 2   0.0150000   2.5000000
pair_coeff 2 3   0.0222486   2.9580399
pair_coeff 2 3   0.0222486   2.9580399
pair_coeff 2 2   0.0150000   2.5000000
pair_coeff 2 2   0.0150000   2.5000000
pair_coeff 2 2   0.0150000   2.5000000
pair_coeff 2 2   0.0150000   2.5000000
pair_coeff 2 3   0.0222486   2.9580399
pair_coeff 3 3   0.0330000   3.5000000
pair_coeff 2 2   0.0150000   2.5000000
pair_coeff 2 3   0.0222486   2.9580399
pair_coeff 2 2   0.0150000   2.5000000
pair_coeff 2 3   0.0222486   2.9580399
pair_coeff 3 3   0.0330000   3.5000000
pair_coeff 2 3   0.0222486   2.9580399
pair_coeff 2 3   0.0222486   2.9580399
pair_coeff 2 2   0.0150000   2.5000000
pair_coeff 2 3   0.0222486   2.9580399
pair_coeff 2 2   0.0150000   2.5000000
pair_coeff 2 3   0.0222486   2.9580399
pair_coeff 2 3   0.0222486   2.9580399
pair_coeff 2 2   0.0150000   2.5000000
pair_coeff 2 2   0.0150000   2.5000000
pair_coeff 2 2   0.0150000   2.5000000
pair_coeff 2 2   0.0150000   2.5000000
pair_coeff 2 3   0.0222486   2.9580399
pair_coeff 3 3   0.0330000   3.5000000
pair_coeff 2 2   0.0150000   2.5000000
pair_coeff 2 3   0.0222486   2.9580399
pair_coeff 2 2   0.0150000   2.5000000
pair_coeff 2 3   0.0222486   2.9580399
pair_coeff 3 3   0.0330000   3.5000000
pair_coeff 2 3   0.0222486   2.9580399
pair_coeff 2 3   0.0222486   2.9580399
pair_coeff 2 2   0.0150000   2.5000000
pair_coeff 2 3   0.0222486   2.9580399
pair_coeff 2 2   0.0150000   2.5000000
pair_coeff 2 3   0.0222486   2.9580399
pair_coeff 2 3   0.0222486   2.9580399
pair_coeff 2 2   0.0150000   2.5000000
pair_coeff 2 2   0.0150000   2.5000000
pair_coeff 2 2   0.0150000   2.5000000
pair_coeff 2 2   0.0150000   2.5000000
pair_coeff 2 3   0.0222486   2.9580399
pair_coeff 3 3   0.0330000   3.5000000
pair_coeff 2 2   0.0150000   2.5000000
pair_coeff 2 3   0.0222486   2.9580399
pair_coeff 2 2   0.0150000   2.5000000
pair_coeff 2 3   0.0222486   2.9580399
pair_coeff 3 3   0.0330000   3.5000000
pair_coeff 2 3   0.0222486   2.9580399
pair_coeff 2 3   0.0222486   2.9580399
pair_coeff 2 2   0.0150000   2.5000000
pair_coeff 2 3   0.0222486   2.9580399
pair_coeff 2 3   0.0222486   2.9580399
pair_coeff 2 2   0.0150000   2.5000000
pair_coeff 2 2   0.0150000   2.5000000
pair_coeff 2 3   0.0222486   2.9580399
pair_coeff 2 2   0.0150000   2.5000000
pair_coeff 2 2   0.0150000   2.5000000
pair_coeff 3 3   0.0330000   3.5000000
pair_coeff 2 3   0.0222486   2.9580399
pair_coeff 2 3   0.0222486   2.9580399
pair_coeff 2 3   0.0222486   2.9580399
pair_coeff 2 2   0.0150000   2.5000000
pair_coeff 2 2   0.0150000   2.5000000
pair_coeff 2 3   0.0222486   2.9580399
pair_coeff 2 2   0.0150000   2.5000000
pair_coeff 2 2   0.0150000   2.5000000
pair_coeff 3 3   0.0330000   3.5000000
pair_coeff 2 3   0.0222486   2.9580399
pair_coeff 2 3   0.0222486   2.9580399
pair_coeff 2 3   0.0222486   2.9580399
pair_coeff 2 2   0.0150000   2.5000000
pair_coeff 2 2   0.0150000   2.5000000
pair_coeff 2 3   0.0222486   2.9580399
pair_coeff 2 2   0.0150000   2.5000000
pair_coeff 2 2   0.0150000   2.5000000
pair_coeff 3 3   0.0330000   3.5000000
pair_coeff 2 3   0.0222486   2.9580399
pair_coeff 2 3   0.0222486   2.9580399
pair_coeff 2 3   0.0222486   2.9580399
pair_coeff 2 2   0.0150000   2.5000000
pair_coeff 2 2   0.0150000   2.5000000
pair_coeff 2 3   0.0222486   2.9580399
pair_coeff 2 3   0.0222486   2.9580399
pair_coeff 2 3   0.0222486   2.9580399
pair_coeff 2 2   0.0150000   2.5000000
pair_coeff 2 2   0.0150000   2.5000000
pair_coeff 2 3   0.0222486   2.9580399
pair_coeff 2 2   0.0150000   2.5000000
pair_coeff 2 2   0.0150000   2.5000000
pair_coeff 3 3   0.0330000   3.5000000
pair_coeff 2 3   0.0222486   2.9580399
pair_coeff 2 3   0.0222486   2.9580399
pair_coeff 2 3   0.0222486   2.9580399
pair_coeff 2 2   0.0150000   2.5000000
pair_coeff 2 2   0.0150000   2.5000000
pair_coeff 2 3   0.0222486   2.9580399
pair_coeff 2 2   0.0150000   2.5000000
pair_coeff 2 2   0.0150000   2.5000000
pair_coeff 3 3   0.0330000   3.5000000
pair_coeff 2 3   0.0222486   2.9580399
pair_coeff 2 3   0.0222486   2.9580399
pair_coeff 2 3   0.0222486   2.9580399
pair_coeff 2 2   0.0150000   2.5000000
pair_coeff 2 2   0.0150000   2.5000000
pair_coeff 2 3   0.0222486   2.9580399
pair_coeff 2 2   0.0150000   2.5000000
pair_coeff 2 2   0.0150000   2.5000000
pair_coeff 3 3   0.0330000   3.5000000
pair_coeff 2 3   0.0222486   2.9580399
pair_coeff 2 3   0.0222486   2.9580399
pair_coeff 2 3   0.0222486   2.9580399
pair_coeff 2 2   0.0150000   2.5000000
pair_coeff 2 2   0.0150000   2.5000000
pair_coeff 2 2   0.0150000   2.5000000
pair_coeff 2 2   0.0150000   2.5000000
pair_coeff 2 3   0.0222486   2.9580399
pair_coeff 2 2   0.0150000   2.5000000
pair_coeff 2 2   0.0150000   2.5000000
pair_coeff 3 3   0.0330000   3.5000000
pair_coeff 2 3   0.0222486   2.9580399
pair_coeff 2 3   0.0222486   2.9580399
pair_coeff 2 3   0.0222486   2.9580399
pair_coeff 2 2   0.0150000   2.5000000
pair_coeff 2 2   0.0150000   2.5000000
pair_coeff 2 3   0.0222486   2.9580399
pair_coeff 2 2   0.0150000   2.5000000
pair_coeff 2 2   0.0150000   2.5000000
pair_coeff 3 3   0.0330000   3.5000000
pair_coeff 2 3   0.0222486   2.9580399
pair_coeff 2 3   0.0222486   2.9580399
pair_coeff 2 3   0.0222486   2.9580399
pair_coeff 2 2   0.0150000   2.5000000
pair_coeff 2 2   0.0150000   2.5000000
pair_coeff 2 3   0.0222486   2.9580399
pair_coeff 2 2   0.0150000   2.5000000
pair_coeff 2 2   0.0150000   2.5000000
pair_coeff 3 3   0.0330000   3.5000000
pair_coeff 2 3   0.0222486   2.9580399
pair_coeff 2 3   0.0222486   2.9580399
pair_coeff 2 3   0.0222486   2.9580399
pair_coeff 2 2   0.0150000   2.5000000
pair_coeff 2 2   0.0150000   2.5000000
pair_coeff 2 3   0.0222486   2.9580399
pair_coeff 2 2   0.0150000   2.5000000
pair_coeff 2 2   0.0150000   2.5000000
pair_coeff 2 3   0.0222486   2.9580399
pair_coeff 3 3   0.0330000   3.5000000
pair_coeff 2 3   0.0222486   2.9580399
pair_coeff 2 3   0.0222486   2.9580399
pair_coeff 2 2   0.0150000   2.5000000
pair_coeff 2 3   0.0222486   2.9580399
pair_coeff 2 2   0.0150000   2.5000000
pair_coeff 2 2   0.0150000   2.5000000
pair_coeff 2 2   0.0150000   2.5000000
pair_coeff 2 3   0.0222486   2.9580399
pair_coeff 2 2   0.0150000   2.5000000
pair_coeff 2 2   0.0150000   2.5000000
pair_coeff 2 3   0.0222486   2.9580399
pair_coeff 2 3   0.0222486   2.9580399
pair_coeff 3 3   0.0330000   3.5000000
pair_coeff 3 3   0.0330000   3.5000000
pair_coeff 2 2   0.0150000   2.5000000
pair_coeff 2 2   0.0150000   2.5000000
pair_coeff 2 3   0.0222486   2.9580399
pair_coeff 2 3   0.0222486   2.9580399
pair_coeff 2 2   0.0150000   2.5000000
pair_coeff 2 2   0.0150000   2.5000000
pair_coeff 2 3   0.0222486   2.9580399
pair_coeff 2 3   0.0222486   2.9580399
pair_coeff 3 3   0.0330000   3.5000000
pair_coeff 2 3   0.0222486   2.9580399
pair_coeff 2 3   0.0222486   2.9580399
pair_coeff 2 3   0.0222486   2.9580399
pair_coeff 2 3   0.0222486   2.9580399
pair_coeff 2 2   0.0150000   2.5000000
pair_coeff 2 2   0.0150000   2.5000000
pair_coeff 2 2   0.0150000   2.5000000
pair_coeff 2 3   0.0222486   2.9580399
pair_coeff 2 2   0.0150000   2.5000000
pair_coeff 2 2   0.0150000   2.5000000
pair_coeff 2 2   0.0150000   2.5000000
pair_coeff 2 3   0.0222486   2.9580399
pair_coeff 3 3   0.0330000   3.5000000
pair_coeff 2 3   0.0222486   2.9580399
pair_coeff 2 3   0.0222486   2.9580399
pair_coeff 2 2   0.0150000   2.5000000
pair_coeff 2 3   0.0222486   2.9580399
pair_coeff 2 2   0.0150000   2.5000000
pair_coeff 2 2   0.0150000   2.5000000
pair_coeff 2 2   0.0150000   2.5000000
pair_coeff 2 3   0.0222486   2.9580399
pair_coeff 2 2   0.0150000   2.5000000
pair_coeff 2 2   0.0150000   2.5000000
pair_coeff 2 3   0.0222486   2.9580399
pair_coeff 2 3   0.0222486   2.9580399
pair_coeff 3 3   0.0330000   3.5000000
pair_coeff 3 3   0.0330000   3.5000000
pair_coeff 2 2   0.0150000   2.5000000
pair_coeff 2 2   0.0150000   2.5000000
pair_coeff 2 3   0.0222486   2.9580399
pair_coeff 2 3   0.0222486   2.9580399
pair_coeff 2 2   0.0150000   2.5000000
pair_coeff 2 2   0.0150000   2.5000000
pair_coeff 2 3   0.0222486   2.9580399
pair_coeff 2 3   0.0222486   2.9580399
pair_coeff 3 3   0.0330000   3.5000000
pair_coeff 2 3   0.0222486   2.9580399
pair_coeff 2 3   0.0222486   2.9580399
pair_coeff 2 3   0.0222486   2.9580399
pair_coeff 2 3   0.0222486   2.9580399
pair_coeff 2 2   0.0150000   2.5000000
pair_coeff 2 2   0.0150000   2.5000000
pair_coeff 2 2   0.0150000   2.5000000
pair_coeff 2 3   0.0222486   2.9580399
pair_coeff 2 2   0.0150000   2.5000000
pair_coeff 2 2   0.0150000   2.5000000
pair_coeff 2 2   0.0150000   2.5000000
pair_coeff 2 3   0.0222486   2.9580399
pair_coeff 3 3   0.0330000   3.5000000
pair_coeff 2 3   0.0222486   2.9580399
pair_coeff 2 3   0.0222486   2.9580399
pair_coeff 2 2   0.0150000   2.5000000
pair_coeff 2 3   0.0222486   2.9580399
pair_coeff 2 2   0.0150000   2.5000000
pair_coeff 2 2   0.0150000   2.5000000
pair_coeff 2 2   0.0150000   2.5000000
pair_coeff 2 3   0.0222486   2.9580399
pair_coeff 2 2   0.0150000   2.5000000
pair_coeff 2 2   0.0150000   2.5000000
pair_coeff 2 3   0.0222486   2.9580399
pair_coeff 2 3   0.0222486   2.9580399
pair_coeff 3 3   0.0330000   3.5000000
pair_coeff 3 3   0.0330000   3.5000000
pair_coeff 2 2   0.0150000   2.5000000
pair_coeff 2 2   0.0150000   2.5000000
pair_coeff 2 3   0.0222486   2.9580399
pair_coeff 2 3   0.0222486   2.9580399
pair_coeff 2 2   0.0150000   2.5000000
pair_coeff 2 2   0.0150000   2.5000000
pair_coeff 2 3   0.0222486   2.9580399
pair_coeff 2 3   0.0222486   2.9580399
pair_coeff 3 3   0.0330000   3.5000000
pair_coeff 2 3   0.0222486   2.9580399
pair_coeff 2 3   0.0222486   2.9580399
pair_coeff 2 3   0.0222486   2.9580399
pair_coeff 2 3   0.0222486   2.9580399
pair_coeff 2 2   0.0150000   2.5000000
pair_coeff 2 2   0.0150000   2.5000000
pair_coeff 2 2   0.0150000   2.5000000
pair_coeff 2 3   0.0222486   2.9580399
pair_coeff 2 2   0.0150000   2.5000000
pair_coeff 2 2   0.0150000   2.5000000
pair_coeff 2 2   0.0150000   2.5000000
pair_coeff 2 3   0.0222486   2.9580399
pair_coeff 3 3   0.0330000   3.5000000
pair_coeff 2 3   0.0222486   2.9580399
pair_coeff 2 3   0.0222486   2.9580399
pair_coeff 2 2   0.0150000   2.5000000
pair_coeff 2 3   0.0222486   2.9580399
pair_coeff 2 2   0.0150000   2.5000000
pair_coeff 2 2   0.0150000   2.5000000
pair_coeff 2 2   0.0150000   2.5000000
pair_coeff 2 3   0.0222486   2.9580399
pair_coeff 2 2   0.0150000   2.5000000
pair_coeff 2 2   0.0150000   2.5000000
pair_coeff 2 3   0.0222486   2.9580399
pair_coeff 2 3   0.0222486   2.9580399
pair_coeff 3 3   0.0330000   3.5000000
pair_coeff 2 2   0.0150000   2.5000000
pair_coeff 2 3   0.0222486   2.9580399
pair_coeff 2 2   0.0150000   2.5000000
pair_coeff 2 2   0.0150000   2.5000000
pair_coeff 3 3   0.0330000   3.5000000
pair_coeff 2 2   0.0150000   2.5000000
pair_coeff 2 3   0.0222486   2.9580399
pair_coeff 3 3   0.0330000   3.5000000
pair_coeff 2 3   0.0222486   2.9580399
pair_coeff 2 3   0.0222486   2.9580399
pair_coeff 2 3   0.0222486   2.9580399
pair_coeff 2 3   0.0222486   2.9580399
pair_coeff 2 2   0.0150000   2.5000000
pair_coeff 2 3   0.0222486   2.9580399
pair_coeff 2 2   0.0150000   2.5000000
pair_coeff 2 2   0.0150000   2.5000000
pair_coeff 2 3   0.0222486   2.9580399
pair_coeff 2 2   0.0150000   2.5000000
pair_coeff 2 2   0.0150000   2.5000000
pair_coeff 2 3   0.0222486   2.9580399
pair_coeff 2 2   0.0150000   2.5000000
pair_coeff 2 2   0.0150000   2.5000000
pair_coeff 3 3   0.0330000   3.5000000
pair_coeff 2 2   0.0150000   2.5000000
pair_coeff 2 3   0.0222486   2.9580399
pair_coeff 3 3   0.0330000   3.5000000
pair_coeff 2 3   0.0222486   2.9580399
pair_coeff 2 3   0.0222486   2.9580399
pair_coeff 2 3   0.0222486   2.9580399
pair_coeff 2 3   0.0222486   2.9580399
pair_coeff 2 2   0.0150000   2.5000000
pair_coeff 2 3   0.0222486   2.9580399
pair_coeff 2 2   0.0150000   2.5000000
pair_coeff 2 2   0.0150000   2.5000000
pair_coeff 2 3   0.0222486   2.9580399
pair_coeff 2 2   0.0150000   2.5000000
pair_coeff 2 2   0.0150000   2.5000000
pair_coeff 2 3   0.0222486   2.9580399
pair_coeff 2 2   0.0150000   2.5000000
pair_coeff 2 2   0.0150000   2.5000000
pair_coeff 3 3   0.0330000   3.5000000
pair_coeff 2 2   0.0150000   2.5000000
pair_coeff 2 3   0.0222486   2.9580399
pair_coeff 3 3   0.0330000   3.5000000
pair_coeff 2 3   0.0222486   2.9580399
pair_coeff 2 3   0.0222486   2.9580399
pair_coeff 2 3   0.0222486   2.9580399
pair_coeff 2 3   0.0222486   2.9580399
pair_coeff 2 2   0.0150000   2.5000000
pair_coeff 2 3   0.0222486   2.9580399
pair_coeff 2 2   0.0150000   2.5000000
pair_coeff 2 2   0.0150000   2.5000000
pair_coeff 2 3   0.0222486   2.9580399
pair_coeff 2 2   0.0150000   2.5000000
pair_coeff 2 2   0.0150000   2.5000000
pair_coeff 2 3   0.0222486   2.9580399
pair_coeff 2 2   0.0150000   2.5000000
pair_coeff 2 2   0.0150000   2.5000000
pair_coeff 3 3   0.0330000   3.5000000
pair_coeff 2 2   0.0150000   2.5000000
pair_coeff 2 3   0.0222486   2.9580399
pair_coeff 3 3   0.0330000   3.5000000
pair_coeff 2 2   0.0150000   2.5000000
pair_coeff 3 3   0.0330000   3.5000000
pair_coeff 2 3   0.0222486   2.9580399
pair_coeff 2 3   0.0222486   2.9580399
pair_coeff 2 3   0.0222486   2.9580399
pair_coeff 2 2   0.0150000   2.5000000
pair_coeff 2 2   0.0150000   2.5000000
pair_coeff 2 3   0.0222486   2.9580399
pair_coeff 2 2   0.0150000   2.5000000
pair_coeff 2 2   0.0150000   2.5000000
pair_coeff 3 3   0.0330000   3.5000000
pair_coeff 2 3   0.0222486   2.9580399
pair_coeff 2 3   0.0222486   2.9580399
pair_coeff 2 3   0.0222486   2.9580399
pair_coeff 2 2   0.0150000   2.5000000
pair_coeff 2 2   0.0150000   2.5000000
pair_coeff 2 3   0.0222486   2.9580399
pair_coeff 2 2   0.0150000   2.5000000
pair_coeff 2 2   0.0150000   2.5000000
pair_coeff 3 3   0.0330000   3.5000000
pair_coeff 2 3   0.0222486   2.9580399
pair_coeff 2 3   0.0222486   2.9580399
pair_coeff 2 3   0.0222486   2.9580399
pair_coeff 2 2   0.0150000   2.5000000
pair_coeff 2 2   0.0150000   2.5000000
pair_coeff 2 3   0.0222486   2.9580399
pair_coeff 2 2   0.0150000   2.5000000
pair_coeff 2 2   0.0150000   2.5000000
pair_coeff 3 3   0.0330000   3.5000000
pair_coeff 2 3   0.0222486   2.9580399
pair_coeff 2 3   0.0222486   2.9580399
pair_coeff 3 3   0.0330000   3.5000000
pair_coeff 2 2   0.0150000   2.5000000
pair_coeff 2 3   0.0222486   2.9580399
pair_coeff 2 3   0.0222486   2.9580399
pair_coeff 2 2   0.0150000   2.5000000
pair_coeff 2 3   0.0222486   2.9580399
pair_coeff 2 3   0.0222486   2.9580399
pair_coeff 2 3   0.0222486   2.9580399
pair_coeff 2 3   0.0222486   2.9580399
pair_coeff 2 3   0.0222486   2.9580399
pair_coeff 2 2   0.0150000   2.5000000
pair_coeff 2 2   0.0150000   2.5000000
pair_coeff 2 2   0.0150000   2.5000000
pair_coeff 2 2   0.0150000   2.5000000
pair_coeff 2 2   0.0150000   2.5000000
pair_coeff 2 2   0.0150000   2.5000000
pair_coeff 3 3   0.0330000   3.5000000
pair_coeff 2 3   0.0222486   2.9580399
pair_coeff 2 3   0.0222486   2.9580399
pair_coeff 2 3   0.0222486   2.9580399
pair_coeff 2 2   0.0150000   2.5000000
pair_coeff 2 2   0.0150000   2.5000000
pair_coeff 2 3   0.0222486   2.9580399
pair_coeff 2 2   0.0150000   2.5000000
pair_coeff 2 2   0.0150000   2.5000000
pair_coeff 2 3   0.0222486   2.9580399
pair_coeff 3 3   0.0330000   3.5000000
pair_coeff 3 3   0.0330000   3.5000000
pair_coeff 2 2   0.0150000   2.5000000
pair_coeff 2 3   0.0222486   2.9580399
pair_coeff 2 3   0.0222486   2.9580399
pair_coeff 2 2   0.0150000   2.5000000
pair_coeff 2 3   0.0222486   2.9580399
pair_coeff 2 3   0.0222486   2.9580399
pair_coeff 2 3   0.0222486   2.9580399
pair_coeff 2 3   0.0222486   2.9580399
pair_coeff 2 3   0.0222486   2.9580399
pair_coeff 2 2   0.0150000   2.5000000
pair_coeff 2 2   0.0150000   2.5000000
pair_coeff 2 2   0.0150000   2.5000000
pair_coeff 2 2   0.0150000   2.5000000
pair_coeff 2 2   0.0150000   2.5000000
pair_coeff 2 2   0.0150000   2.5000000
pair_coeff 3 3   0.0330000   3.5000000
pair_coeff 2 3   0.0222486   2.9580399
pair_coeff 2 3   0.0222486   2.9580399
pair_coeff 2 3   0.0222486   2.9580399
pair_coeff 2 2   0.0150000   2.5000000
pair_coeff 2 2   0.0150000   2.5000000
pair_coeff 2 3   0.0222486   2.9580399
pair_coeff 2 2   0.0150000   2.5000000
pair_coeff 2 2   0.0150000   2.5000000
pair_coeff 2 3   0.0222486   2.9580399
pair_coeff 3 3   0.0330000   3.5000000
pair_coeff 3 3   0.0330000   3.5000000
pair_coeff 2 2   0.0150000   2.5000000
pair_coeff 2 3   0.0222486   2.9580399
pair_coeff 2 3   0.0222486   2.9580399
pair_coeff 2 2   0.0150000   2.5000000
pair_coeff 2 3   0.0222486   2.9580399
pair_coeff 2 3   0.0222486   2.9580399
pair_coeff 2 3   0.0222486   2.9580399
pair_coeff 2 3   0.0222486   2.9580399
pair_coeff 2 3   0.0222486   2.9580399
pair_coeff 2 2   0.0150000   2.5000000
pair_coeff 2 2   0.0150000   2.5000000
pair_coeff 2 2   0.0150000   2.5000000
pair_coeff 2 2   0.0150000   2.5000000
pair_coeff 2 2   0.0150000   2.5000000
pair_coeff 2 2   0.0150000   2.5000000
pair_coeff 3 3   0.0330000   3.5000000
pair_coeff 2 3   0.0222486   2.9580399
pair_coeff 2 3   0.0222486   2.9580399
pair_coeff 2 3   0.0222486   2.9580399
pair_coeff 2 2   0.0150000   2.5000000
pair_coeff 2 2   0.0150000   2.5000000
pair_coeff 2 3   0.0222486   2.9580399
pair_coeff 2 2   0.0150000   2.5000000
pair_coeff 2 2   0.0150000   2.5000000
pair_coeff 2 3   0.0222486   2.9580399
pair_coeff 3 3   0.0330000   3.5000000
pair_coeff 3 3   0.0330000   3.5000000
pair_coeff 2 2   0.0150000   2.5000000
pair_coeff 2 3   0.0222486   2.9580399
pair_coeff 2 3   0.0222486   2.9580399
pair_coeff 2 2   0.0150000   2.5000000
pair_coeff 2 3   0.0222486   2.9580399
pair_coeff 2 3   0.0222486   2.9580399
pair_coeff 2 3   0.0222486   2.9580399
pair_coeff 2 3   0.0222486   2.9580399
pair_coeff 2 3   0.0222486   2.9580399
pair_coeff 2 2   0.0150000   2.5000000
pair_coeff 2 2   0.0150000   2.5000000
pair_coeff 2 3   0.0222486   2.9580399
pair_coeff 2 2   0.0150000   2.5000000
pair_coeff 2 3   0.0222486   2.9580399
pair_coeff 2 2   0.0150000   2.5000000
pair_coeff 2 2   0.0150000   2.5000000
pair_coeff 3 3   0.0330000   3.5000000
pair_coeff 2 2   0.0150000   2.5000000
pair_coeff 2 3   0.0222486   2.9580399
pair_coeff 2 3   0.0222486   2.9580399
pair_coeff 2 3   0.0222486   2.9580399
pair_coeff 2 2   0.0150000   2.5000000
pair_coeff 2 3   0.0222486   2.9580399
pair_coeff 2 2   0.0150000   2.5000000
pair_coeff 2 2   0.0150000   2.5000000
pair_coeff 3 3   0.0330000   3.5000000
pair_coeff 2 2   0.0150000   2.5000000
pair_coeff 2 3   0.0222486   2.9580399
pair_coeff 2 3   0.0222486   2.9580399
pair_coeff 2 3   0.0222486   2.9580399
pair_coeff 2 2   0.0150000   2.5000000
pair_coeff 2 3   0.0222486   2.9580399
pair_coeff 2 2   0.0150000   2.5000000
pair_coeff 2 2   0.0150000   2.5000000
pair_coeff 3 3   0.0330000   3.5000000
pair_coeff 2 2   0.0150000   2.5000000
pair_coeff 2 3   0.0222486   2.9580399
pair_coeff 2 3   0.0222486   2.9580399
pair_coeff 2 3   0.0222486   2.9580399
pair_coeff 2 2   0.0150000   2.5000000
pair_coeff 2 3   0.0222486   2.9580399
pair_coeff 2 2   0.0150000   2.5000000
pair_coeff 2 2   0.0150000   2.5000000
pair_coeff 3 3   0.0330000   3.5000000
pair_coeff 2 2   0.0150000   2.5000000
pair_coeff 2 3   0.0222486   2.9580399
pair_coeff 2 3   0.0222486   2.9580399
pair_coeff 2 3   0.0222486   2.9580399
pair_coeff 2 2   0.0150000   2.5000000
pair_coeff 2 3   0.0222486   2.9580399
pair_coeff 2 2   0.0150000   2.5000000
pair_coeff 2 2   0.0150000   2.5000000
pair_coeff 3 3   0.0330000   3.5000000
pair_coeff 2 2   0.0150000   2.5000000
pair_coeff 2 3   0.0222486   2.9580399
pair_coeff 2 3   0.0222486   2.9580399
pair_coeff 2 3   0.0222486   2.9580399
pair_coeff 2 2   0.0150000   2.5000000
pair_coeff 2 3   0.0222486   2.9580399
pair_coeff 2 2   0.0150000   2.5000000
pair_coeff 2 2   0.0150000   2.5000000
pair_coeff 3 3   0.0330000   3.5000000
pair_coeff 2 2   0.0150000   2.5000000
pair_coeff 2 3   0.0222486   2.9580399
pair_coeff 2 3   0.0222486   2.9580399
pair_coeff 2 3   0.0222486   2.9580399
pair_coeff 2 2   0.0150000   2.5000000
pair_coeff 2 3   0.0222486   2.9580399
pair_coeff 2 2   0.0150000   2.5000000
pair_coeff 2 2   0.0150000   2.5000000
pair_coeff 3 3   0.0330000   3.5000000
pair_coeff 2 2   0.0150000   2.5000000
pair_coeff 2 3   0.0222486   2.9580399
pair_coeff 2 3   0.0222486   2.9580399
pair_coeff 2 3   0.0222486   2.9580399
pair_coeff 2 3   0.0222486   2.9580399
pair_coeff 2 2   0.0150000   2.5000000
pair_coeff 2 2   0.0150000   2.5000000
pair_coeff 2 3   0.0222486   2.9580399
pair_coeff 2 2   0.0150000   2.5000000
pair_coeff 2 2   0.0150000   2.5000000
pair_coeff 3 3   0.0330000   3.5000000
pair_coeff 2 3   0.0222486   2.9580399
pair_coeff 2 3   0.0222486   2.9580399
pair_coeff 2 3   0.0222486   2.9580399
pair_coeff 2 2   0.0150000   2.5000000
pair_coeff 2 2   0.0150000   2.5000000
pair_coeff 2 3   0.0222486   2.9580399
pair_coeff 2 2   0.0150000   2.5000000
pair_coeff 2 2   0.0150000   2.5000000
pair_coeff 3 3   0.0330000   3.5000000
pair_coeff 2 3   0.0222486   2.9580399
pair_coeff 2 3   0.0222486   2.9580399
pair_coeff 2 3   0.0222486   2.9580399
pair_coeff 2 2   0.0150000   2.5000000
pair_coeff 2 2   0.0150000   2.5000000
pair_coeff 2 3   0.0222486   2.9580399
pair_coeff 2 2   0.0150000   2.5000000
pair_coeff 2 2   0.0150000   2.5000000
pair_coeff 3 3   0.0330000   3.5000000
pair_coeff 2 3   0.0222486   2.9580399
pair_coeff 2 3   0.0222486   2.9580399
pair_coeff 2 3   0.0222486   2.9580399
pair_coeff 2 2   0.0150000   2.5000000
pair_coeff 2 3   0.0222486   2.9580399
pair_coeff 2 2   0.0150000   2.5000000
pair_coeff 2 2   0.0150000   2.5000000
pair_coeff 2 2   0.0150000   2.5000000
pair_coeff 2 2   0.0150000   2.5000000
pair_coeff 2 3   0.0222486   2.9580399
pair_coeff 2 3   0.0222486   2.9580399
pair_coeff 2 2   0.0150000   2.5000000
pair_coeff 2 2   0.0150000   2.5000000
pair_coeff 2 2   0.0150000   2.5000000
pair_coeff 2 2   0.0150000   2.5000000
pair_coeff 3 3   0.0330000   3.5000000
pair_coeff 3 3   0.0330000   3.5000000
pair_coeff 2 3   0.0222486   2.9580399
pair_coeff 2 3   0.0222486   2.9580399
pair_coeff 2 3   0.0222486   2.9580399
pair_coeff 2 3   0.0222486   2.9580399
pair_coeff 2 3   0.0222486   2.9580399
pair_coeff 2 3   0.0222486   2.9580399
pair_coeff 2 2   0.0150000   2.5000000
pair_coeff 2 2   0.0150000   2.5000000
pair_coeff 2 2   0.0150000   2.5000000
pair_coeff 2 2   0.0150000   2.5000000
pair_coeff 2 3   0.0222486   2.9580399
pair_coeff 2 3   0.0222486   2.9580399
pair_coeff 2 2   0.0150000   2.5000000
pair_coeff 2 2   0.0150000   2.5000000
pair_coeff 2 2   0.0150000   2.5000000
pair_coeff 2 2   0.0150000   2.5000000
pair_coeff 3 3   0.0330000   3.5000000
pair_coeff 3 3   0.0330000   3.5000000
pair_coeff 2 3   0.0222486   2.9580399
pair_coeff 2 3   0.0222486   2.9580399
pair_coeff 2 3   0.0222486   2.9580399
pair_coeff 2 3   0.0222486   2.9580399
pair_coeff 2 3   0.0222486   2.9580399
pair_coeff 2 3   0.0222486   2.9580399
pair_coeff 2 2   0.0150000   2.5000000
pair_coeff 2 2   0.0150000   2.5000000
pair_coeff 2 2   0.0150000   2.5000000
pair_coeff 2 2   0.0150000   2.5000000
pair_coeff 2 3   0.0222486   2.9580399
pair_coeff 2 3   0.0222486   2.9580399
pair_coeff 2 2   0.0150000   2.5000000
pair_coeff 2 2   0.0150000   2.5000000
pair_coeff 2 2   0.0150000   2.5000000
pair_coeff 2 2   0.0150000   2.5000000
pair_coeff 3 3   0.0330000   3.5000000
pair_coeff 3 3   0.0330000   3.5000000
pair_coeff 2 3   0.0222486   2.9580399
pair_coeff 2 3   0.0222486   2.9580399
pair_coeff 2 3   0.0222486   2.9580399
pair_coeff 2 3   0.0222486   2.9580399
pair_coeff 2 3   0.0222486   2.9580399
pair_coeff 2 3   0.0222486   2.9580399
pair_coeff 2 2   0.0150000   2.5000000
pair_coeff 2 2   0.0150000   2.5000000
pair_coeff 2 2   0.0150000   2.5000000
pair_coeff 2 2   0.0150000   2.5000000
pair_coeff 2 3   0.0222486   2.9580399
pair_coeff 2 3   0.0222486   2.9580399
pair_coeff 2 2   0.0150000   2.5000000
pair_coeff 2 3   0.0222486   2.9580399
pair_coeff 2 3   0.0222486   2.9580399
pair_coeff 2 2   0.0150000   2.5000000
pair_coeff 2 2   0.0150000   2.5000000
pair_coeff 2 3   0.0222486   2.9580399
pair_coeff 2 2   0.0150000   2.5000000
pair_coeff 2 2   0.0150000   2.5000000
pair_coeff 3 3   0.0330000   3.5000000
pair_coeff 2 3   0.0222486   2.9580399
pair_coeff 2 3   0.0222486   2.9580399
pair_coeff 2 3   0.0222486   2.9580399
pair_coeff 2 2   0.0150000   2.5000000
pair_coeff 2 2   0.0150000   2.5000000
pair_coeff 2 3   0.0222486   2.9580399
pair_coeff 2 2   0.0150000   2.5000000
pair_coeff 2 2   0.0150000   2.5000000
pair_coeff 3 3   0.0330000   3.5000000
pair_coeff 2 3   0.0222486   2.9580399
pair_coeff 2 3   0.0222486   2.9580399
pair_coeff 2 3   0.0222486   2.9580399
pair_coeff 2 2   0.0150000   2.5000000
pair_coeff 2 2   0.0150000   2.5000000
pair_coeff 2 3   0.0222486   2.9580399
pair_coeff 2 2   0.0150000   2.5000000
pair_coeff 2 2   0.0150000   2.5000000
pair_coeff 3 3   0.0330000   3.5000000
pair_coeff 2 3   0.0222486   2.9580399
pair_coeff 2 3   0.0222486   2.9580399
pair_coeff 2 3   0.0222486   2.9580399
pair_coeff 2 2   0.0150000   2.5000000
pair_coeff 2 2   0.0150000   2.5000000
pair_coeff 2 3   0.0222486   2.9580399
pair_coeff 2 2   0.0150000   2.5000000
pair_coeff 2 2   0.0150000   2.5000000
pair_coeff 2 2   0.0150000   2.5000000
pair_coeff 2 2   0.0150000   2.5000000
pair_coeff 2 3   0.0222486   2.9580399
pair_coeff 3 3   0.0330000   3.5000000
pair_coeff 2 3   0.0222486   2.9580399
pair_coeff 2 2   0.0150000   2.5000000
pair_coeff 2 2   0.0150000   2.5000000
pair_coeff 2 3   0.0222486   2.9580399
pair_coeff 2 2   0.0150000   2.5000000
pair_coeff 3 3   0.0330000   3.5000000
pair_coeff 2 2   0.0150000   2.5000000
pair_coeff 2 3   0.0222486   2.9580399
pair_coeff 2 2   0.0150000   2.5000000
pair_coeff 2 3   0.0222486   2.9580399
pair_coeff 3 3   0.0330000   3.5000000
pair_coeff 2 3   0.0222486   2.9580399
pair_coeff 3 3   0.0330000   3.5000000
pair_coeff 2 3   0.0222486   2.9580399
pair_coeff 2 3   0.0222486   2.9580399
pair_coeff 2 2   0.0150000   2.5000000
pair_coeff 2 3   0.0222486   2.9580399
pair_coeff 2 3   0.0222486   2.9580399
pair_coeff 2 3   0.0222486   2.9580399
pair_coeff 2 2   0.0150000   2.5000000
pair_coeff 2 3   0.0222486   2.9580399
pair_coeff 2 2   0.0150000   2.5000000
pair_coeff 2 3   0.0222486   2.9580399
pair_coeff 2 3   0.0222486   2.9580399
pair_coeff 2 3   0.0222486   2.9580399
pair_coeff 2 2   0.0150000   2.5000000
pair_coeff 2 2   0.0150000   2.5000000
pair_coeff 2 2   0.0150000   2.5000000
pair_coeff 2 2   0.0150000   2.5000000
pair_coeff 2 3   0.0222486   2.9580399
pair_coeff 2 2   0.0150000   2.5000000
pair_coeff 2 2   0.0150000   2.5000000
pair_coeff 2 2   0.0150000   2.5000000
pair_coeff 2 2   0.0150000   2.5000000
pair_coeff 2 3   0.0222486   2.9580399
pair_coeff 3 3   0.0330000   3.5000000
pair_coeff 2 3   0.0222486   2.9580399
pair_coeff 2 2   0.0150000   2.5000000
pair_coeff 2 2   0.0150000   2.5000000
pair_coeff 2 3   0.0222486   2.9580399
pair_coeff 2 2   0.0150000   2.5000000
pair_coeff 3 3   0.0330000   3.5000000
pair_coeff 2 2   0.0150000   2.5000000
pair_coeff 2 3   0.0222486   2.9580399
pair_coeff 2 2   0.0150000   2.5000000
pair_coeff 2 3   0.0222486   2.9580399
pair_coeff 3 3   0.0330000   3.5000000
pair_coeff 2 3   0.0222486   2.9580399
pair_coeff 3 3   0.0330000   3.5000000
pair_coeff 2 3   0.0222486   2.9580399
pair_coeff 2 3   0.0222486   2.9580399
pair_coeff 2 2   0.0150000   2.5000000
pair_coeff 2 3   0.0222486   2.9580399
pair_coeff 2 3   0.0222486   2.9580399
pair_coeff 2 3   0.0222486   2.9580399
pair_coeff 2 2   0.0150000   2.5000000
pair_coeff 2 3   0.0222486   2.9580399
pair_coeff 2 2   0.0150000   2.5000000
pair_coeff 2 3   0.0222486   2.9580399
pair_coeff 2 3   0.0222486   2.9580399
pair_coeff 2 3   0.0222486   2.9580399
pair_coeff 2 2   0.0150000   2.5000000
pair_coeff 2 2   0.0150000   2.5000000
pair_coeff 2 2   0.0150000   2.5000000
pair_coeff 2 2   0.0150000   2.5000000
pair_coeff 2 3   0.0222486   2.9580399
pair_coeff 2 2   0.0150000   2.5000000
pair_coeff 2 2   0.0150000   2.5000000
pair_coeff 2 2   0.0150000   2.5000000
pair_coeff 2 2   0.0150000   2.5000000
pair_coeff 2 3   0.0222486   2.9580399
pair_coeff 3 3   0.0330000   3.5000000
pair_coeff 2 3   0.0222486   2.9580399
pair_coeff 2 2   0.0150000   2.5000000
pair_coeff 2 2   0.0150000   2.5000000
pair_coeff 2 3   0.0222486   2.9580399
pair_coeff 2 2   0.0150000   2.5000000
pair_coeff 3 3   0.0330000   3.5000000
pair_coeff 2 2   0.0150000   2.5000000
pair_coeff 2 3   0.0222486   2.9580399
pair_coeff 2 2   0.0150000   2.5000000
pair_coeff 2 3   0.0222486   2.9580399
pair_coeff 3 3   0.0330000   3.5000000
pair_coeff 2 3   0.0222486   2.9580399
pair_coeff 3 3   0.0330000   3.5000000
pair_coeff 2 3   0.0222486   2.9580399
pair_coeff 2 3   0.0222486   2.9580399
pair_coeff 2 2   0.0150000   2.5000000
pair_coeff 2 3   0.0222486   2.9580399
pair_coeff 2 3   0.0222486   2.9580399
pair_coeff 2 3   0.0222486   2.9580399
pair_coeff 2 2   0.0150000   2.5000000
pair_coeff 2 3   0.0222486   2.9580399
pair_coeff 2 2   0.0150000   2.5000000
pair_coeff 2 3   0.0222486   2.9580399
pair_coeff 2 3   0.0222486   2.9580399
pair_coeff 2 3   0.0222486   2.9580399
pair_coeff 2 2   0.0150000   2.5000000
pair_coeff 2 2   0.0150000   2.5000000
pair_coeff 2 2   0.0150000   2.5000000
pair_coeff 2 2   0.0150000   2.5000000
pair_coeff 2 3   0.0222486   2.9580399
pair_coeff 2 2   0.0150000   2.5000000
pair_coeff 2 2   0.0150000   2.5000000
pair_coeff 2 2   0.0150000   2.5000000
pair_coeff 2 2   0.0150000   2.5000000
pair_coeff 2 3   0.0222486   2.9580399
pair_coeff 3 3   0.0330000   3.5000000
pair_coeff 2 3   0.0222486   2.9580399
pair_coeff 2 2   0.0150000   2.5000000
pair_coeff 2 2   0.0150000   2.5000000
pair_coeff 2 3   0.0222486   2.9580399
pair_coeff 2 2   0.0150000   2.5000000
pair_coeff 3 3   0.0330000   3.5000000
pair_coeff 2 2   0.0150000   2.5000000
pair_coeff 2 3   0.0222486   2.9580399
pair_coeff 2 2   0.0150000   2.5000000
pair_coeff 2 2   0.0150000   2.5000000
pair_coeff 2 2   0.0150000   2.5000000
pair_coeff 3 3   0.0330000   3.5000000
pair_coeff 2 3   0.0222486   2.9580399
pair_coeff 2 3   0.0222486   2.9580399
pair_coeff 2 3   0.0222486   2.9580399
pair_coeff 2 2   0.0150000   2.5000000
pair_coeff 2 2   0.0150000   2.5000000
pair_coeff 2 3   0.0222486   2.9580399
pair_coeff 2 2   0.0150000   2.5000000
pair_coeff 2 2   0.0150000   2.5000000
pair_coeff 3 3   0.0330000   3.5000000
pair_coeff 2 3   0.0222486   2.9580399
pair_coeff 2 3   0.0222486   2.9580399
pair_coeff 2 3   0.0222486   2.9580399
pair_coeff 2 2   0.0150000   2.5000000
pair_coeff 2 2   0.0150000   2.5000000
pair_coeff 2 3   0.0222486   2.9580399
pair_coeff 2 2   0.0150000   2.5000000
pair_coeff 2 2   0.0150000   2.5000000
pair_coeff 3 3   0.0330000   3.5000000
pair_coeff 2 3   0.0222486   2.9580399
pair_coeff 2 3   0.0222486   2.9580399
pair_coeff 2 3   0.0222486   2.9580399
pair_coeff 2 2   0.0150000   2.5000000
pair_coeff 2 2   0.0150000   2.5000000
pair_coeff 2 3   0.0222486   2.9580399
pair_coeff 2 2   0.0150000   2.5000000
pair_coeff 2 2   0.0150000   2.5000000
pair_coeff 3 3   0.0330000   3.5000000
pair_coeff 2 3   0.0222486   2.9580399
pair_coeff 2 2   0.0150000   2.5000000
pair_coeff 3 3   0.0330000   3.5000000
pair_coeff 2 3   0.0222486   2.9580399
pair_coeff 2 3   0.0222486   2.9580399
pair_coeff 2 3   0.0222486   2.9580399
pair_coeff 2 2   0.0150000   2.5000000
pair_coeff 2 2   0.0150000   2.5000000
pair_coeff 2 3   0.0222486   2.9580399
pair_coeff 2 2   0.0150000   2.5000000
pair_coeff 2 2   0.0150000   2.5000000
pair_coeff 3 3   0.0330000   3.5000000
pair_coeff 2 3   0.0222486   2.9580399
pair_coeff 2 3   0.0222486   2.9580399
pair_coeff 2 3   0.0222486   2.9580399
pair_coeff 2 2   0.0150000   2.5000000
pair_coeff 2 2   0.0150000   2.5000000
pair_coeff 2 3   0.0222486   2.9580399
pair_coeff 2 2   0.0150000   2.5000000
pair_coeff 2 2   0.0150000   2.5000000
pair_coeff 3 3   0.0330000   3.5000000
pair_coeff 2 3   0.0222486   2.9580399
pair_coeff 2 3   0.0222486   2.9580399
pair_coeff 2 3   0.0222486   2.9580399
pair_coeff 2 2   0.0150000   2.5000000
pair_coeff 2 2   0.0150000   2.5000000
pair_coeff 2 3   0.0222486   2.9580399
pair_coeff 2 2   0.0150000   2.5000000
pair_coeff 2 2   0.0150000   2.5000000
pair_coeff 3 3   0.0330000   3.5000000
pair_coeff 2 3   0.0222486   2.9580399
pair_coeff 2 3   0.0222486   2.9580399
pair_coeff 2 3   0.0222486   2.9580399
pair_coeff 2 3   0.0222486   2.9580399
pair_coeff 3 3   0.0330000   3.5000000
pair_coeff 2 3   0.0222486   2.9580399
pair_coeff 2 2   0.0150000   2.5000000
pair_coeff 2 3   0.0222486   2.9580399
pair_coeff 2 3   0.0222486   2.9580399
pair_coeff 2 2   0.0150000   2.5000000
pair_coeff 2 3   0.0222486   2.9580399
pair_coeff 2 2   0.0150000   2.5000000
pair_coeff 2 3   0.0222486   2.9580399
pair_coeff 2 3   0.0222486   2.9580399
pair_coeff 2 2   0.0150000   2.5000000
pair_coeff 2 2   0.0150000   2.5000000
pair_coeff 2 2   0.0150000   2.5000000
pair_coeff 2 3   0.0222486   2.9580399
pair_coeff 2 2   0.0150000   2.5000000
pair_coeff 2 2   0.0150000   2.5000000
pair_coeff 2 2   0.0150000   2.5000000
pair_coeff 3 3   0.0330000   3.5000000
pair_coeff 2 3   0.0222486   2.9580399
pair_coeff 2 2   0.0150000   2.5000000
pair_coeff 2 3   0.0222486   2.9580399
pair_coeff 2 2   0.0150000   2.5000000
pair_coeff 3 3   0.0330000   3.5000000
pair_coeff 2 3   0.0222486   2.9580399
pair_coeff 2 2   0.0150000   2.5000000
pair_coeff 2 3   0.0222486   2.9580399
pair_coeff 2 3   0.0222486   2.9580399
pair_coeff 1 3   0.0330000   3.5000000
pair_coeff 2 3   0.0222486   2.9580399
pair_coeff 2 2   0.0150000   2.5000000
pair_coeff 1 2   0.0222486   2.9580399
pair_coeff 2 3   0.0222486   2.9580399
pair_coeff 2 2   0.0150000   2.5000000
pair_coeff 1 2   0.0222486   2.9580399
pair_coeff 2 2   0.0150000   2.5000000
pair_coeff 2 3   0.0222486   2.9580399
pair_coeff 2 3   0.0222486   2.9580399
pair_coeff 2 2   0.0150000   2.5000000
pair_coeff 2 2   0.0150000   2.5000000
pair_coeff 2 2   0.0150000   2.5000000
pair_coeff 2 3   0.0222486   2.9580399
pair_coeff 2 2   0.0150000   2.5000000
pair_coeff 2 2   0.0150000   2.5000000
pair_coeff 2 2   0.0150000   2.5000000
pair_coeff 3 3   0.0330000   3.5000000
pair_coeff 2 3   0.0222486   2.9580399
pair_coeff 2 2   0.0150000   2.5000000
pair_coeff 2 3   0.0222486   2.9580399
pair_coeff 2 2   0.0150000   2.5000000
pair_coeff 3 3   0.0330000   3.5000000
pair_coeff 2 3   0.0222486   2.9580399
pair_coeff 2 2   0.0150000   2.5000000
pair_coeff 2 3   0.0222486   2.9580399
pair_coeff 2 3   0.0222486   2.9580399
pair_coeff 2 3   0.0222486   2.9580399
pair_coeff 2 3   0.0222486   2.9580399
pair_coeff 2 2   0.0150000   2.5000000
pair_coeff 2 2   0.0150000   2.5000000
pair_coeff 2 3   0.0222486   2.9580399
pair_coeff 2 2   0.0150000   2.5000000
pair_coeff 2 2   0.0150000   2.5000000
pair_coeff 2 2   0.0150000   2.5000000
pair_coeff 2 3   0.0222486   2.9580399
pair_coeff 2 2   0.0150000   2.5000000
pair_coeff 2 2   0.0150000   2.5000000
pair_coeff 2 3   0.0222486   2.9580399
pair_coeff 2 2   0.0150000   2.5000000
pair_coeff 2 2   0.0150000   2.5000000
pair_coeff 3 3   0.0330000   3.5000000
pair_coeff 2 2   0.0150000   2.5000000
pair_coeff 2 3   0.0222486   2.9580399
pair_coeff 3 3   0.0330000   3.5000000
pair_coeff 2 3   0.0222486   2.9580399
pair_coeff 2 3   0.0222486   2.9580399
pair_coeff 2 3   0.0222486   2.9580399
pair_coeff 2 3   0.0222486   2.9580399
pair_coeff 2 2   0.0150000   2.5000000
pair_coeff 2 3   0.0222486   2.9580399
pair_coeff 2 2   0.0150000   2.5000000
pair_coeff 2 2   0.0150000   2.5000000
pair_coeff 2 3   0.0222486   2.9580399

pair_modify mix geometric

fix 1 all nvt temp 298.15 298.15 100.0 drag 0.1
dump 1 all xtc 5000 dump.xtc
dump_modify 1 unwrap yes
thermo_style custom step ebond eangle edihed eimp epair evdwl ecoul elong etail pe
thermo 5000

run 100000
PPPM initialization ...
  using 12-bit tables for long-range coulomb (src/kspace.cpp:328)
  G vector (1/distance) = 0.28398674
  grid = 16 15 40
  stencil order = 5
  estimated absolute RMS force accuracy = 0.00027531876
  estimated relative force accuracy = 8.2911426e-07
  using double precision FFTW3
  3d grid and FFT values/proc = 22770 9600
Neighbor list info ...
  update every 1 steps, delay 10 steps, check yes
  max neighbors/atom: 2000, page size: 100000
  master list distance cutoff = 11
  ghost atom cutoff = 11
  binsize = 5.5, bins = 5 5 18
  1 neighbor lists, perpetual/occasional/extra = 1 0 0
  (1) pair lj/cut/coul/long, perpetual
      attributes: half, newton on
      pair build: half/bin/newton/tri
      stencil: half/bin/3d/newton/tri
      bin: standard
Per MPI rank memory allocation (min/avg/max) = 14.06 | 14.06 | 14.06 Mbytes
Step E_bond E_angle E_dihed E_impro E_pair E_vdwl E_coul E_long E_tail PotEng 
       0    53.192488    23.141857    11.401108            0    21.320329    -15.55664    206.84134   -169.96437            0    109.05578 
    5000    163.25326    184.01703    52.411962            0    46.296895    10.170655    206.08089   -169.95465            0    445.97915 
   10000    145.67369    224.63267    66.166495            0    41.553933    6.7779472    204.86612   -170.09014            0    478.02678 
   15000    150.38822    239.89887    76.570717            0    32.976021   -0.9306648    204.26599    -170.3593            0    499.83382 
   20000    133.00239    236.58855    75.380724            0     30.71997   -3.9106851    205.44005    -170.8094            0    475.69163 
   25000    148.17452    213.67997    74.935962            0    37.203892    4.3721612    203.18367   -170.35194            0    473.99434 
   30000    137.70847    227.60896    81.760129            0    29.605866   -2.6264865    202.80708   -170.57473            0    476.68342 
   35000    148.12772    224.11837    79.229488            0    33.832553    1.9921779    202.37646   -170.53608            0    485.30813 
   40000     137.8444    200.30028    74.982132            0     24.44341   -7.4730775    202.53439    -170.6179            0    437.57023 
   45000    135.66836    242.80524    69.020113            0    29.254583   -3.0970512    202.56049   -170.20885            0    476.74829 
   50000    146.92502    226.24219    71.921576            0    30.180083   -2.3477522    202.95624   -170.42841            0    475.26887 
   55000    149.48563    241.12706    78.321001            0    34.292917    1.8781896     202.9844   -170.56967            0    503.22661 
   60000     137.7709    222.29249    74.063113            0    28.582883   -4.6345805    204.03267   -170.81521            0    462.70939 
   65000    135.85913    211.12852    72.803547            0    27.741662   -5.2456169    203.69329   -170.70601            0    447.53286 
   70000    137.23669    233.93502    85.264913            0    27.295885   -4.9237898    202.77508    -170.5554            0     483.7325 
   75000    127.45042    243.40806    79.423157            0    30.976812  -0.65304633    202.11564   -170.48579            0    481.25845 
   80000    132.45083    209.90583     75.90796            0     37.40509    6.4639079    201.29356   -170.35238            0    455.66971 
   85000    144.31804    239.51703    71.274868            0    27.736409    -4.968791    203.12608   -170.42088            0    482.84635 
   90000    132.90163    234.05787    78.491575            0    19.691269   -12.580735    203.05155   -170.77955            0    465.14235 
   95000    136.33114    216.66338    76.486173            0    24.881005   -7.3100323     202.8075   -170.61647            0     454.3617 
  100000    151.13754    244.51735    83.593995            0    15.226596   -16.437887    202.71401   -171.04952            0    494.47548 
Loop time of 162.594 on 1 procs for 100000 steps with 452 atoms

Performance: 53.139 ns/day, 0.452 hours/ns, 615.030 timesteps/s
99.9% CPU use with 1 MPI tasks x 1 OpenMP threads

MPI task timing breakdown:
Section |  min time  |  avg time  |  max time  |%varavg| %total
---------------------------------------------------------------
Pair    | 58.164     | 58.164     | 58.164     |   0.0 | 35.77
Bond    | 16.245     | 16.245     | 16.245     |   0.0 |  9.99
Kspace  | 83.504     | 83.504     | 83.504     |   0.0 | 51.36
Neigh   | 3.2727     | 3.2727     | 3.2727     |   0.0 |  2.01
Comm    | 0.51502    | 0.51502    | 0.51502    |   0.0 |  0.32
Output  | 0.0016553  | 0.0016553  | 0.0016553  |   0.0 |  0.00
Modify  | 0.661      | 0.661      | 0.661      |   0.0 |  0.41
Other   |            | 0.2306     |            |       |  0.14

Nlocal:        452.000 ave         452 max         452 min
Histogram: 1 0 0 0 0 0 0 0 0 0
Nghost:        978.000 ave         978 max         978 min
Histogram: 1 0 0 0 0 0 0 0 0 0
Neighs:        50681.0 ave       50681 max       50681 min
Histogram: 1 0 0 0 0 0 0 0 0 0

Total # of neighbors = 50681
Ave neighs/atom = 112.12611
Ave special neighs/atom = 11.911504
Neighbor list builds = 2051
Dangerous builds = 0

Total wall time: 0:02:42
